decompositions/zmienne_worki/g_100_80_10.td
s td 57 5 100
b 1 13 14 30 65 
b 2 54 
b 3 49 
b 4 1 34 46 
b 5 18 32 
b 6 44 
b 7 52 
b 8 77 
b 9 8 59 
b 10 6 55 100 
b 11 4 41 45 68 89 
b 12 19 81 96 
b 13 24 
b 14 50 91 
b 15 29 56 
b 16 27 47 
b 17 38 
b 18 80 
b 19 20 
b 20 26 28 
b 21 16 23 
b 22 48 79 
b 23 3 36 42 
b 24 99 
b 25 95 
b 26 90 
b 27 62 88 
b 28 33 
b 29 60 72 
b 30 2 
b 31 11 57 75 
b 32 86 
b 33 78 
b 34 31 58 92 
b 35 98 
b 36 83 
b 37 63 
b 38 70 94 
b 39 35 85 
b 40 22 
b 41 43 
b 42 7 
b 43 66 
b 44 25 84 
b 45 73 97 
b 46 74 
b 47 64 
b 48 21 51 87 
b 49 37 82 
b 50 15 76 
b 51 9 17 
b 52 12 40 
b 53 5 67 71 
b 54 69 93 
b 55 10 
b 56 61 
b 57 39 53 
1 2
1 3
2 4
3 5
4 6
5 7
6 8
7 9
8 10
9 11
10 12
11 13
12 14
13 15
14 16
15 17
16 18
18 19
19 20
20 21
21 22
22 23
23 24
24 25
25 26
26 27
27 28
28 29
29 30
30 31
31 32
32 33
33 34
34 35
35 36
36 37
37 38
38 39
39 40
40 41
41 42
42 43
43 44
44 45
45 46
46 47
47 48
48 49
49 50
50 51
51 52
52 53
53 54
54 55
55 56
56 57
