graphs/pace/raport/zmienne_worki/g_100_80_10.gr
p tw 100 60
9 17
15 76
13 14
13 30
13 65
14 30
14 65
30 65
1 34
1 46
34 46
16 23
6 55
6 100
55 100
19 81
19 96
81 96
3 36
3 42
36 42
69 93
21 51
21 87
51 87
73 97
5 67
5 71
67 71
12 40
8 59
29 56
39 53
31 58
31 92
58 92
11 57
11 75
57 75
60 72
27 47
18 32
25 84
50 91
48 79
26 28
62 88
35 85
37 82
70 94
4 41
4 45
4 68
4 89
41 45
41 68
41 89
45 68
45 89
68 89
